100 4950
1 2 3
1 3 3
1 4 4
1 5 5
1 6 1
1 7 3
1 8 1
1 9 2
1 10 3
1 11 2
1 12 5
1 13 3
1 14 3
1 15 4
1 16 5
1 17 2
1 18 3
1 19 5
1 20 4
1 21 2
1 22 1
1 23 3
1 24 4
1 25 5
1 26 3
1 27 5
1 28 2
1 29 1
1 30 3
1 31 1
1 32 5
1 33 3
1 34 5
1 35 1
1 36 5
1 37 1
1 38 1
1 39 4
1 40 1
1 41 1
1 42 4
1 43 2
1 44 5
1 45 1
1 46 4
1 47 2
1 48 3
1 49 3
1 50 2
1 51 4
1 52 4
1 53 1
1 54 2
1 55 4
1 56 4
1 57 5
1 58 3
1 59 4
1 60 1
1 61 1
1 62 3
1 63 4
1 64 1
1 65 5
1 66 3
1 67 5
1 68 4
1 69 3
1 70 3
1 71 2
1 72 2
1 73 4
1 74 5
1 75 4
1 76 5
1 77 5
1 78 4
1 79 4
1 80 5
1 81 3
1 82 2
1 83 2
1 84 5
1 85 4
1 86 3
1 87 1
1 88 1
1 89 5
1 90 5
1 91 5
1 92 4
1 93 5
1 94 2
1 95 1
1 96 2
1 97 4
1 98 5
1 99 1
1 100 4
2 3 5
2 4 5
2 5 1
2 6 1
2 7 3
2 8 1
2 9 5
2 10 3
2 11 3
2 12 1
2 13 3
2 14 1
2 15 5
2 16 4
2 17 4
2 18 2
2 19 5
2 20 1
2 21 2
2 22 3
2 23 4
2 24 5
2 25 1
2 26 5
2 27 2
2 28 1
2 29 2
2 30 2
2 31 4
2 32 2
2 33 1
2 34 1
2 35 1
2 36 5
2 37 4
2 38 2
2 39 1
2 40 1
2 41 4
2 42 2
2 43 3
2 44 2
2 45 5
2 46 3
2 47 1
2 48 4
2 49 1
2 50 2
2 51 1
2 52 5
2 53 2
2 54 2
2 55 5
2 56 4
2 57 1
2 58 1
2 59 1
2 60 1
2 61 5
2 62 4
2 63 4
2 64 5
2 65 2
2 66 4
2 67 5
2 68 4
2 69 2
2 70 3
2 71 3
2 72 4
2 73 4
2 74 5
2 75 4
2 76 2
2 77 4
2 78 2
2 79 1
2 80 3
2 81 4
2 82 3
2 83 2
2 84 4
2 85 5
2 86 2
2 87 5
2 88 4
2 89 2
2 90 4
2 91 4
2 92 2
2 93 5
2 94 2
2 95 2
2 96 4
2 97 5
2 98 1
2 99 5
2 100 1
3 4 4
3 5 2
3 6 3
3 7 1
3 8 3
3 9 2
3 10 3
3 11 5
3 12 5
3 13 5
3 14 3
3 15 4
3 16 1
3 17 5
3 18 3
3 19 5
3 20 5
3 21 2
3 22 2
3 23 4
3 24 1
3 25 1
3 26 5
3 27 4
3 28 5
3 29 3
3 30 5
3 31 2
3 32 2
3 33 3
3 34 3
3 35 5
3 36 4
3 37 5
3 38 3
3 39 1
3 40 1
3 41 3
3 42 4
3 43 3
3 44 1
3 45 5
3 46 5
3 47 4
3 48 2
3 49 3
3 50 2
3 51 2
3 52 1
3 53 4
3 54 3
3 55 2
3 56 4
3 57 2
3 58 5
3 59 5
3 60 2
3 61 4
3 62 1
3 63 4
3 64 5
3 65 2
3 66 1
3 67 1
3 68 5
3 69 2
3 70 3
3 71 5
3 72 2
3 73 3
3 74 4
3 75 5
3 76 4
3 77 4
3 78 1
3 79 1
3 80 1
3 81 4
3 82 3
3 83 2
3 84 4
3 85 4
3 86 5
3 87 1
3 88 5
3 89 4
3 90 1
3 91 4
3 92 5
3 93 5
3 94 2
3 95 3
3 96 5
3 97 5
3 98 4
3 99 4
3 100 2
4 5 1
4 6 3
4 7 5
4 8 2
4 9 1
4 10 4
4 11 2
4 12 5
4 13 4
4 14 1
4 15 5
4 16 5
4 17 4
4 18 5
4 19 4
4 20 1
4 21 1
4 22 5
4 23 4
4 24 4
4 25 1
4 26 2
4 27 5
4 28 4
4 29 5
4 30 5
4 31 1
4 32 3
4 33 3
4 34 2
4 35 3
4 36 2
4 37 3
4 38 2
4 39 2
4 40 2
4 41 1
4 42 3
4 43 5
4 44 4
4 45 1
4 46 4
4 47 4
4 48 4
4 49 5
4 50 4
4 51 5
4 52 1
4 53 1
4 54 1
4 55 5
4 56 2
4 57 5
4 58 1
4 59 5
4 60 4
4 61 1
4 62 2
4 63 1
4 64 3
4 65 2
4 66 5
4 67 3
4 68 1
4 69 2
4 70 2
4 71 1
4 72 1
4 73 5
4 74 2
4 75 2
4 76 3
4 77 1
4 78 1
4 79 3
4 80 1
4 81 4
4 82 2
4 83 3
4 84 2
4 85 1
4 86 5
4 87 2
4 88 3
4 89 2
4 90 5
4 91 5
4 92 3
4 93 4
4 94 4
4 95 2
4 96 2
4 97 4
4 98 3
4 99 2
4 100 3
5 6 3
5 7 1
5 8 4
5 9 2
5 10 2
5 11 1
5 12 2
5 13 5
5 14 4
5 15 3
5 16 5
5 17 2
5 18 3
5 19 3
5 20 3
5 21 4
5 22 3
5 23 4
5 24 1
5 25 1
5 26 5
5 27 3
5 28 1
5 29 4
5 30 5
5 31 5
5 32 1
5 33 2
5 34 3
5 35 5
5 36 1
5 37 1
5 38 4
5 39 5
5 40 4
5 41 3
5 42 5
5 43 5
5 44 4
5 45 5
5 46 2
5 47 1
5 48 4
5 49 1
5 50 3
5 51 2
5 52 1
5 53 4
5 54 3
5 55 2
5 56 4
5 57 4
5 58 5
5 59 4
5 60 2
5 61 1
5 62 4
5 63 1
5 64 2
5 65 5
5 66 1
5 67 1
5 68 3
5 69 4
5 70 1
5 71 1
5 72 5
5 73 3
5 74 4
5 75 1
5 76 5
5 77 4
5 78 1
5 79 2
5 80 1
5 81 1
5 82 2
5 83 1
5 84 5
5 85 1
5 86 3
5 87 1
5 88 5
5 89 2
5 90 4
5 91 4
5 92 3
5 93 3
5 94 5
5 95 5
5 96 4
5 97 4
5 98 1
5 99 5
5 100 5
6 7 1
6 8 1
6 9 5
6 10 2
6 11 4
6 12 2
6 13 1
6 14 3
6 15 2
6 16 5
6 17 3
6 18 3
6 19 2
6 20 1
6 21 5
6 22 2
6 23 5
6 24 5
6 25 2
6 26 4
6 27 1
6 28 2
6 29 5
6 30 3
6 31 4
6 32 1
6 33 2
6 34 3
6 35 4
6 36 2
6 37 5
6 38 3
6 39 2
6 40 1
6 41 1
6 42 1
6 43 2
6 44 1
6 45 5
6 46 4
6 47 3
6 48 2
6 49 4
6 50 3
6 51 3
6 52 2
6 53 5
6 54 3
6 55 1
6 56 5
6 57 5
6 58 3
6 59 3
6 60 4
6 61 5
6 62 2
6 63 4
6 64 5
6 65 4
6 66 3
6 67 5
6 68 3
6 69 3
6 70 5
6 71 1
6 72 1
6 73 3
6 74 3
6 75 2
6 76 5
6 77 4
6 78 5
6 79 4
6 80 2
6 81 5
6 82 3
6 83 5
6 84 3
6 85 3
6 86 1
6 87 4
6 88 1
6 89 5
6 90 1
6 91 4
6 92 2
6 93 4
6 94 4
6 95 2
6 96 5
6 97 4
6 98 4
6 99 4
6 100 2
7 8 2
7 9 5
7 10 5
7 11 2
7 12 2
7 13 1
7 14 2
7 15 1
7 16 2
7 17 2
7 18 2
7 19 5
7 20 2
7 21 3
7 22 1
7 23 1
7 24 2
7 25 5
7 26 3
7 27 1
7 28 1
7 29 3
7 30 2
7 31 1
7 32 4
7 33 5
7 34 4
7 35 3
7 36 2
7 37 1
7 38 2
7 39 1
7 40 2
7 41 1
7 42 1
7 43 1
7 44 4
7 45 1
7 46 5
7 47 3
7 48 3
7 49 5
7 50 1
7 51 3
7 52 3
7 53 5
7 54 5
7 55 2
7 56 5
7 57 3
7 58 2
7 59 5
7 60 4
7 61 4
7 62 5
7 63 2
7 64 3
7 65 1
7 66 4
7 67 4
7 68 2
7 69 4
7 70 5
7 71 3
7 72 3
7 73 5
7 74 5
7 75 5
7 76 3
7 77 2
7 78 5
7 79 2
7 80 5
7 81 2
7 82 1
7 83 1
7 84 4
7 85 1
7 86 2
7 87 5
7 88 2
7 89 4
7 90 2
7 91 3
7 92 4
7 93 2
7 94 1
7 95 3
7 96 5
7 97 4
7 98 5
7 99 1
7 100 4
8 9 2
8 10 5
8 11 4
8 12 1
8 13 4
8 14 5
8 15 4
8 16 2
8 17 3
8 18 2
8 19 2
8 20 5
8 21 1
8 22 5
8 23 2
8 24 1
8 25 3
8 26 1
8 27 1
8 28 4
8 29 4
8 30 3
8 31 4
8 32 3
8 33 1
8 34 4
8 35 5
8 36 2
8 37 5
8 38 3
8 39 5
8 40 1
8 41 1
8 42 1
8 43 3
8 44 1
8 45 2
8 46 5
8 47 3
8 48 5
8 49 2
8 50 5
8 51 1
8 52 2
8 53 4
8 54 4
8 55 3
8 56 5
8 57 2
8 58 1
8 59 1
8 60 4
8 61 3
8 62 3
8 63 5
8 64 2
8 65 1
8 66 2
8 67 4
8 68 5
8 69 2
8 70 4
8 71 4
8 72 4
8 73 4
8 74 5
8 75 5
8 76 2
8 77 1
8 78 1
8 79 5
8 80 4
8 81 3
8 82 2
8 83 2
8 84 5
8 85 2
8 86 3
8 87 1
8 88 4
8 89 3
8 90 1
8 91 1
8 92 3
8 93 5
8 94 1
8 95 3
8 96 3
8 97 5
8 98 2
8 99 2
8 100 1
9 10 2
9 11 2
9 12 4
9 13 2
9 14 1
9 15 4
9 16 3
9 17 2
9 18 1
9 19 4
9 20 4
9 21 1
9 22 1
9 23 3
9 24 3
9 25 2
9 26 2
9 27 1
9 28 1
9 29 5
9 30 2
9 31 2
9 32 2
9 33 4
9 34 1
9 35 1
9 36 4
9 37 5
9 38 2
9 39 3
9 40 3
9 41 3
9 42 5
9 43 5
9 44 4
9 45 5
9 46 5
9 47 1
9 48 4
9 49 4
9 50 4
9 51 5
9 52 4
9 53 4
9 54 1
9 55 4
9 56 2
9 57 1
9 58 4
9 59 1
9 60 2
9 61 5
9 62 4
9 63 4
9 64 2
9 65 5
9 66 4
9 67 2
9 68 5
9 69 4
9 70 3
9 71 1
9 72 2
9 73 1
9 74 5
9 75 2
9 76 2
9 77 3
9 78 5
9 79 3
9 80 3
9 81 1
9 82 1
9 83 3
9 84 4
9 85 5
9 86 1
9 87 2
9 88 5
9 89 3
9 90 5
9 91 2
9 92 2
9 93 5
9 94 3
9 95 5
9 96 2
9 97 2
9 98 4
9 99 5
9 100 3
10 11 3
10 12 1
10 13 2
10 14 1
10 15 1
10 16 2
10 17 4
10 18 1
10 19 4
10 20 5
10 21 5
10 22 1
10 23 2
10 24 2
10 25 2
10 26 1
10 27 1
10 28 2
10 29 2
10 30 3
10 31 1
10 32 5
10 33 2
10 34 4
10 35 1
10 36 1
10 37 5
10 38 4
10 39 1
10 40 2
10 41 5
10 42 2
10 43 5
10 44 1
10 45 3
10 46 5
10 47 5
10 48 1
10 49 1
10 50 3
10 51 3
10 52 4
10 53 2
10 54 3
10 55 2
10 56 5
10 57 3
10 58 3
10 59 3
10 60 1
10 61 4
10 62 1
10 63 5
10 64 5
10 65 3
10 66 3
10 67 1
10 68 4
10 69 4
10 70 5
10 71 5
10 72 2
10 73 4
10 74 5
10 75 5
10 76 3
10 77 2
10 78 1
10 79 4
10 80 3
10 81 1
10 82 3
10 83 2
10 84 4
10 85 5
10 86 2
10 87 3
10 88 4
10 89 2
10 90 3
10 91 2
10 92 1
10 93 5
10 94 5
10 95 2
10 96 2
10 97 3
10 98 1
10 99 1
10 100 3
11 12 3
11 13 1
11 14 4
11 15 4
11 16 5
11 17 4
11 18 5
11 19 1
11 20 3
11 21 2
11 22 2
11 23 3
11 24 5
11 25 4
11 26 2
11 27 1
11 28 2
11 29 5
11 30 2
11 31 3
11 32 2
11 33 4
11 34 1
11 35 5
11 36 1
11 37 1
11 38 1
11 39 1
11 40 5
11 41 3
11 42 5
11 43 4
11 44 3
11 45 2
11 46 5
11 47 5
11 48 1
11 49 4
11 50 5
11 51 5
11 52 1
11 53 3
11 54 3
11 55 5
11 56 3
11 57 1
11 58 5
11 59 2
11 60 3
11 61 1
11 62 1
11 63 4
11 64 1
11 65 5
11 66 4
11 67 4
11 68 5
11 69 1
11 70 5
11 71 1
11 72 1
11 73 1
11 74 1
11 75 2
11 76 2
11 77 5
11 78 5
11 79 4
11 80 4
11 81 2
11 82 2
11 83 4
11 84 4
11 85 4
11 86 1
11 87 1
11 88 5
11 89 5
11 90 4
11 91 2
11 92 1
11 93 2
11 94 3
11 95 4
11 96 5
11 97 3
11 98 5
11 99 3
11 100 3
12 13 1
12 14 4
12 15 5
12 16 1
12 17 2
12 18 3
12 19 5
12 20 3
12 21 1
12 22 2
12 23 1
12 24 4
12 25 5
12 26 5
12 27 5
12 28 4
12 29 1
12 30 5
12 31 1
12 32 4
12 33 4
12 34 3
12 35 3
12 36 2
12 37 1
12 38 1
12 39 4
12 40 2
12 41 1
12 42 2
12 43 2
12 44 5
12 45 3
12 46 5
12 47 3
12 48 5
12 49 3
12 50 5
12 51 4
12 52 4
12 53 1
12 54 2
12 55 2
12 56 4
12 57 2
12 58 3
12 59 1
12 60 3
12 61 4
12 62 3
12 63 2
12 64 1
12 65 4
12 66 4
12 67 1
12 68 2
12 69 5
12 70 5
12 71 3
12 72 1
12 73 1
12 74 2
12 75 5
12 76 1
12 77 4
12 78 5
12 79 4
12 80 4
12 81 1
12 82 4
12 83 2
12 84 1
12 85 5
12 86 1
12 87 2
12 88 1
12 89 1
12 90 1
12 91 3
12 92 5
12 93 2
12 94 1
12 95 2
12 96 3
12 97 2
12 98 5
12 99 2
12 100 4
13 14 3
13 15 5
13 16 2
13 17 1
13 18 3
13 19 3
13 20 1
13 21 4
13 22 1
13 23 2
13 24 1
13 25 1
13 26 5
13 27 5
13 28 5
13 29 4
13 30 5
13 31 3
13 32 4
13 33 2
13 34 2
13 35 1
13 36 4
13 37 4
13 38 5
13 39 4
13 40 2
13 41 5
13 42 2
13 43 5
13 44 1
13 45 5
13 46 5
13 47 1
13 48 2
13 49 3
13 50 4
13 51 4
13 52 1
13 53 4
13 54 4
13 55 2
13 56 5
13 57 3
13 58 4
13 59 2
13 60 5
13 61 2
13 62 5
13 63 1
13 64 5
13 65 1
13 66 5
13 67 1
13 68 2
13 69 4
13 70 5
13 71 2
13 72 3
13 73 4
13 74 2
13 75 5
13 76 4
13 77 1
13 78 2
13 79 5
13 80 4
13 81 5
13 82 4
13 83 1
13 84 3
13 85 2
13 86 4
13 87 1
13 88 1
13 89 1
13 90 5
13 91 1
13 92 3
13 93 1
13 94 3
13 95 2
13 96 4
13 97 2
13 98 3
13 99 1
13 100 4
14 15 5
14 16 3
14 17 1
14 18 2
14 19 5
14 20 4
14 21 2
14 22 4
14 23 4
14 24 3
14 25 3
14 26 2
14 27 3
14 28 2
14 29 5
14 30 2
14 31 5
14 32 2
14 33 1
14 34 4
14 35 3
14 36 5
14 37 4
14 38 3
14 39 1
14 40 2
14 41 2
14 42 1
14 43 2
14 44 5
14 45 1
14 46 1
14 47 4
14 48 4
14 49 2
14 50 3
14 51 1
14 52 1
14 53 2
14 54 3
14 55 5
14 56 4
14 57 2
14 58 1
14 59 5
14 60 1
14 61 4
14 62 1
14 63 5
14 64 1
14 65 1
14 66 3
14 67 4
14 68 1
14 69 4
14 70 2
14 71 1
14 72 4
14 73 3
14 74 4
14 75 1
14 76 5
14 77 4
14 78 5
14 79 2
14 80 3
14 81 1
14 82 1
14 83 4
14 84 2
14 85 3
14 86 5
14 87 4
14 88 1
14 89 3
14 90 1
14 91 3
14 92 5
14 93 2
14 94 3
14 95 2
14 96 2
14 97 4
14 98 5
14 99 1
14 100 4
15 16 2
15 17 4
15 18 4
15 19 1
15 20 1
15 21 2
15 22 5
15 23 3
15 24 5
15 25 5
15 26 3
15 27 2
15 28 4
15 29 1
15 30 5
15 31 5
15 32 4
15 33 4
15 34 4
15 35 1
15 36 3
15 37 2
15 38 4
15 39 2
15 40 5
15 41 4
15 42 3
15 43 1
15 44 1
15 45 4
15 46 2
15 47 3
15 48 3
15 49 4
15 50 3
15 51 3
15 52 2
15 53 1
15 54 5
15 55 3
15 56 1
15 57 4
15 58 2
15 59 4
15 60 4
15 61 4
15 62 1
15 63 1
15 64 2
15 65 5
15 66 1
15 67 2
15 68 5
15 69 2
15 70 4
15 71 4
15 72 3
15 73 3
15 74 3
15 75 1
15 76 4
15 77 4
15 78 4
15 79 2
15 80 1
15 81 5
15 82 4
15 83 1
15 84 3
15 85 1
15 86 2
15 87 3
15 88 5
15 89 2
15 90 2
15 91 2
15 92 2
15 93 5
15 94 2
15 95 4
15 96 3
15 97 4
15 98 2
15 99 1
15 100 5
16 17 2
16 18 4
16 19 5
16 20 5
16 21 3
16 22 1
16 23 2
16 24 1
16 25 4
16 26 4
16 27 1
16 28 1
16 29 4
16 30 1
16 31 3
16 32 4
16 33 5
16 34 5
16 35 1
16 36 5
16 37 4
16 38 4
16 39 5
16 40 5
16 41 4
16 42 3
16 43 4
16 44 1
16 45 1
16 46 1
16 47 5
16 48 4
16 49 1
16 50 2
16 51 3
16 52 4
16 53 2
16 54 4
16 55 2
16 56 2
16 57 5
16 58 3
16 59 2
16 60 5
16 61 3
16 62 5
16 63 2
16 64 2
16 65 4
16 66 5
16 67 2
16 68 3
16 69 1
16 70 1
16 71 1
16 72 3
16 73 5
16 74 1
16 75 5
16 76 5
16 77 1
16 78 5
16 79 5
16 80 5
16 81 3
16 82 2
16 83 1
16 84 5
16 85 1
16 86 5
16 87 3
16 88 5
16 89 1
16 90 3
16 91 3
16 92 5
16 93 3
16 94 1
16 95 1
16 96 4
16 97 5
16 98 4
16 99 5
16 100 3
17 18 2
17 19 4
17 20 1
17 21 2
17 22 4
17 23 2
17 24 4
17 25 3
17 26 3
17 27 4
17 28 2
17 29 2
17 30 5
17 31 5
17 32 5
17 33 2
17 34 5
17 35 5
17 36 3
17 37 2
17 38 5
17 39 4
17 40 1
17 41 4
17 42 3
17 43 4
17 44 3
17 45 3
17 46 1
17 47 5
17 48 2
17 49 2
17 50 5
17 51 2
17 52 3
17 53 2
17 54 5
17 55 3
17 56 2
17 57 3
17 58 4
17 59 1
17 60 5
17 61 4
17 62 2
17 63 5
17 64 4
17 65 3
17 66 3
17 67 5
17 68 1
17 69 3
17 70 3
17 71 1
17 72 3
17 73 2
17 74 3
17 75 2
17 76 4
17 77 1
17 78 3
17 79 4
17 80 5
17 81 4
17 82 1
17 83 3
17 84 5
17 85 4
17 86 3
17 87 5
17 88 5
17 89 2
17 90 4
17 91 4
17 92 1
17 93 4
17 94 4
17 95 3
17 96 5
17 97 1
17 98 3
17 99 3
17 100 4
18 19 2
18 20 5
18 21 2
18 22 5
18 23 5
18 24 2
18 25 4
18 26 4
18 27 4
18 28 2
18 29 4
18 30 3
18 31 2
18 32 1
18 33 5
18 34 3
18 35 1
18 36 4
18 37 5
18 38 5
18 39 3
18 40 2
18 41 1
18 42 1
18 43 1
18 44 4
18 45 5
18 46 3
18 47 5
18 48 3
18 49 1
18 50 1
18 51 5
18 52 1
18 53 2
18 54 2
18 55 3
18 56 3
18 57 4
18 58 5
18 59 2
18 60 2
18 61 1
18 62 5
18 63 3
18 64 3
18 65 1
18 66 5
18 67 5
18 68 5
18 69 5
18 70 2
18 71 4
18 72 5
18 73 2
18 74 5
18 75 1
18 76 2
18 77 1
18 78 3
18 79 5
18 80 3
18 81 4
18 82 2
18 83 4
18 84 1
18 85 5
18 86 4
18 87 2
18 88 1
18 89 1
18 90 5
18 91 2
18 92 1
18 93 3
18 94 4
18 95 5
18 96 1
18 97 3
18 98 4
18 99 1
18 100 3
19 20 5
19 21 5
19 22 3
19 23 5
19 24 2
19 25 1
19 26 2
19 27 2
19 28 2
19 29 1
19 30 3
19 31 3
19 32 5
19 33 3
19 34 3
19 35 5
19 36 5
19 37 5
19 38 1
19 39 4
19 40 3
19 41 4
19 42 3
19 43 5
19 44 3
19 45 2
19 46 3
19 47 2
19 48 3
19 49 5
19 50 1
19 51 3
19 52 1
19 53 2
19 54 3
19 55 4
19 56 5
19 57 4
19 58 1
19 59 2
19 60 5
19 61 1
19 62 5
19 63 1
19 64 2
19 65 2
19 66 5
19 67 1
19 68 3
19 69 5
19 70 3
19 71 4
19 72 5
19 73 3
19 74 3
19 75 3
19 76 1
19 77 3
19 78 3
19 79 5
19 80 4
19 81 4
19 82 3
19 83 2
19 84 2
19 85 5
19 86 4
19 87 5
19 88 4
19 89 2
19 90 4
19 91 5
19 92 5
19 93 4
19 94 5
19 95 1
19 96 5
19 97 3
19 98 2
19 99 5
19 100 1
20 21 2
20 22 2
20 23 3
20 24 2
20 25 2
20 26 4
20 27 1
20 28 2
20 29 2
20 30 4
20 31 5
20 32 2
20 33 4
20 34 5
20 35 4
20 36 5
20 37 2
20 38 1
20 39 1
20 40 1
20 41 4
20 42 5
20 43 2
20 44 3
20 45 4
20 46 2
20 47 3
20 48 3
20 49 2
20 50 3
20 51 1
20 52 1
20 53 1
20 54 1
20 55 2
20 56 2
20 57 5
20 58 3
20 59 2
20 60 1
20 61 1
20 62 2
20 63 3
20 64 4
20 65 5
20 66 3
20 67 1
20 68 2
20 69 4
20 70 1
20 71 2
20 72 3
20 73 3
20 74 5
20 75 1
20 76 1
20 77 1
20 78 3
20 79 4
20 80 5
20 81 4
20 82 5
20 83 1
20 84 3
20 85 4
20 86 2
20 87 4
20 88 2
20 89 2
20 90 2
20 91 1
20 92 1
20 93 4
20 94 4
20 95 3
20 96 5
20 97 2
20 98 5
20 99 2
20 100 2
21 22 2
21 23 2
21 24 5
21 25 5
21 26 5
21 27 1
21 28 4
21 29 1
21 30 3
21 31 5
21 32 3
21 33 3
21 34 1
21 35 2
21 36 3
21 37 3
21 38 4
21 39 3
21 40 1
21 41 5
21 42 1
21 43 2
21 44 5
21 45 3
21 46 5
21 47 1
21 48 3
21 49 2
21 50 5
21 51 2
21 52 5
21 53 4
21 54 4
21 55 2
21 56 5
21 57 3
21 58 4
21 59 3
21 60 2
21 61 5
21 62 3
21 63 1
21 64 1
21 65 2
21 66 1
21 67 2
21 68 1
21 69 3
21 70 4
21 71 1
21 72 3
21 73 5
21 74 4
21 75 4
21 76 2
21 77 3
21 78 5
21 79 2
21 80 4
21 81 4
21 82 2
21 83 2
21 84 1
21 85 4
21 86 2
21 87 1
21 88 1
21 89 3
21 90 3
21 91 4
21 92 1
21 93 2
21 94 5
21 95 4
21 96 5
21 97 3
21 98 2
21 99 3
21 100 5
22 23 5
22 24 1
22 25 4
22 26 4
22 27 2
22 28 1
22 29 4
22 30 3
22 31 4
22 32 1
22 33 2
22 34 2
22 35 1
22 36 5
22 37 3
22 38 5
22 39 3
22 40 5
22 41 2
22 42 1
22 43 3
22 44 1
22 45 1
22 46 5
22 47 5
22 48 5
22 49 4
22 50 2
22 51 1
22 52 5
22 53 4
22 54 2
22 55 1
22 56 3
22 57 2
22 58 4
22 59 2
22 60 2
22 61 4
22 62 1
22 63 2
22 64 4
22 65 4
22 66 4
22 67 4
22 68 3
22 69 2
22 70 4
22 71 4
22 72 5
22 73 1
22 74 3
22 75 4
22 76 4
22 77 3
22 78 4
22 79 3
22 80 1
22 81 4
22 82 2
22 83 3
22 84 5
22 85 4
22 86 1
22 87 1
22 88 5
22 89 2
22 90 3
22 91 2
22 92 1
22 93 4
22 94 1
22 95 3
22 96 5
22 97 2
22 98 5
22 99 2
22 100 1
23 24 2
23 25 1
23 26 4
23 27 5
23 28 2
23 29 4
23 30 1
23 31 1
23 32 1
23 33 1
23 34 5
23 35 2
23 36 1
23 37 3
23 38 5
23 39 3
23 40 1
23 41 4
23 42 1
23 43 4
23 44 2
23 45 5
23 46 2
23 47 3
23 48 1
23 49 4
23 50 3
23 51 1
23 52 2
23 53 5
23 54 4
23 55 1
23 56 4
23 57 2
23 58 1
23 59 3
23 60 4
23 61 1
23 62 1
23 63 3
23 64 4
23 65 4
23 66 2
23 67 2
23 68 3
23 69 4
23 70 1
23 71 1
23 72 4
23 73 2
23 74 4
23 75 1
23 76 4
23 77 3
23 78 1
23 79 2
23 80 2
23 81 3
23 82 1
23 83 4
23 84 5
23 85 1
23 86 1
23 87 5
23 88 1
23 89 4
23 90 2
23 91 3
23 92 1
23 93 2
23 94 2
23 95 2
23 96 3
23 97 4
23 98 4
23 99 2
23 100 2
24 25 3
24 26 5
24 27 2
24 28 1
24 29 4
24 30 5
24 31 5
24 32 4
24 33 3
24 34 5
24 35 3
24 36 3
24 37 5
24 38 2
24 39 1
24 40 2
24 41 3
24 42 1
24 43 3
24 44 5
24 45 2
24 46 5
24 47 1
24 48 2
24 49 5
24 50 1
24 51 1
24 52 3
24 53 1
24 54 1
24 55 5
24 56 2
24 57 2
24 58 3
24 59 3
24 60 4
24 61 1
24 62 3
24 63 2
24 64 1
24 65 1
24 66 3
24 67 1
24 68 4
24 69 5
24 70 2
24 71 5
24 72 2
24 73 1
24 74 1
24 75 1
24 76 1
24 77 4
24 78 4
24 79 4
24 80 5
24 81 2
24 82 1
24 83 1
24 84 4
24 85 2
24 86 4
24 87 3
24 88 2
24 89 2
24 90 2
24 91 1
24 92 4
24 93 3
24 94 4
24 95 2
24 96 5
24 97 1
24 98 3
24 99 3
24 100 2
25 26 2
25 27 1
25 28 5
25 29 5
25 30 1
25 31 5
25 32 3
25 33 5
25 34 1
25 35 2
25 36 2
25 37 1
25 38 2
25 39 5
25 40 3
25 41 4
25 42 2
25 43 5
25 44 5
25 45 2
25 46 3
25 47 3
25 48 2
25 49 3
25 50 5
25 51 2
25 52 1
25 53 3
25 54 3
25 55 5
25 56 1
25 57 2
25 58 2
25 59 5
25 60 3
25 61 4
25 62 5
25 63 2
25 64 3
25 65 3
25 66 5
25 67 4
25 68 2
25 69 5
25 70 4
25 71 2
25 72 5
25 73 3
25 74 1
25 75 1
25 76 5
25 77 2
25 78 1
25 79 4
25 80 1
25 81 1
25 82 3
25 83 4
25 84 4
25 85 1
25 86 1
25 87 1
25 88 5
25 89 1
25 90 5
25 91 5
25 92 5
25 93 3
25 94 2
25 95 2
25 96 1
25 97 2
25 98 4
25 99 4
25 100 4
26 27 2
26 28 2
26 29 4
26 30 5
26 31 4
26 32 4
26 33 1
26 34 3
26 35 3
26 36 4
26 37 2
26 38 5
26 39 4
26 40 2
26 41 2
26 42 3
26 43 1
26 44 2
26 45 1
26 46 3
26 47 4
26 48 4
26 49 3
26 50 1
26 51 2
26 52 2
26 53 3
26 54 1
26 55 2
26 56 5
26 57 1
26 58 5
26 59 2
26 60 4
26 61 4
26 62 4
26 63 1
26 64 3
26 65 3
26 66 2
26 67 3
26 68 2
26 69 4
26 70 5
26 71 4
26 72 5
26 73 1
26 74 5
26 75 1
26 76 1
26 77 4
26 78 4
26 79 5
26 80 2
26 81 2
26 82 5
26 83 1
26 84 3
26 85 4
26 86 3
26 87 4
26 88 1
26 89 4
26 90 1
26 91 3
26 92 4
26 93 4
26 94 3
26 95 5
26 96 3
26 97 2
26 98 2
26 99 1
26 100 1
27 28 4
27 29 5
27 30 3
27 31 2
27 32 5
27 33 4
27 34 3
27 35 3
27 36 5
27 37 3
27 38 1
27 39 4
27 40 2
27 41 5
27 42 3
27 43 3
27 44 5
27 45 3
27 46 5
27 47 4
27 48 3
27 49 4
27 50 4
27 51 5
27 52 2
27 53 2
27 54 1
27 55 2
27 56 1
27 57 5
27 58 5
27 59 2
27 60 2
27 61 5
27 62 5
27 63 3
27 64 5
27 65 4
27 66 4
27 67 3
27 68 2
27 69 5
27 70 3
27 71 2
27 72 3
27 73 5
27 74 1
27 75 4
27 76 1
27 77 1
27 78 2
27 79 5
27 80 2
27 81 5
27 82 5
27 83 3
27 84 2
27 85 2
27 86 5
27 87 3
27 88 1
27 89 2
27 90 2
27 91 3
27 92 2
27 93 1
27 94 1
27 95 4
27 96 2
27 97 4
27 98 2
27 99 5
27 100 4
28 29 4
28 30 1
28 31 1
28 32 2
28 33 2
28 34 3
28 35 5
28 36 1
28 37 5
28 38 5
28 39 2
28 40 5
28 41 4
28 42 3
28 43 1
28 44 5
28 45 2
28 46 3
28 47 2
28 48 4
28 49 3
28 50 3
28 51 3
28 52 4
28 53 3
28 54 2
28 55 2
28 56 3
28 57 1
28 58 1
28 59 5
28 60 2
28 61 5
28 62 4
28 63 2
28 64 5
28 65 2
28 66 1
28 67 3
28 68 1
28 69 1
28 70 4
28 71 4
28 72 3
28 73 1
28 74 1
28 75 2
28 76 5
28 77 5
28 78 3
28 79 5
28 80 3
28 81 4
28 82 1
28 83 1
28 84 1
28 85 3
28 86 4
28 87 1
28 88 5
28 89 2
28 90 3
28 91 1
28 92 3
28 93 2
28 94 4
28 95 4
28 96 5
28 97 4
28 98 2
28 99 2
28 100 4
29 30 2
29 31 4
29 32 3
29 33 5
29 34 3
29 35 3
29 36 3
29 37 2
29 38 1
29 39 2
29 40 3
29 41 5
29 42 4
29 43 5
29 44 4
29 45 1
29 46 1
29 47 2
29 48 5
29 49 5
29 50 4
29 51 5
29 52 4
29 53 4
29 54 2
29 55 5
29 56 4
29 57 3
29 58 2
29 59 1
29 60 4
29 61 2
29 62 1
29 63 5
29 64 1
29 65 5
29 66 3
29 67 5
29 68 1
29 69 2
29 70 1
29 71 2
29 72 4
29 73 3
29 74 4
29 75 1
29 76 2
29 77 2
29 78 3
29 79 1
29 80 1
29 81 4
29 82 4
29 83 2
29 84 4
29 85 3
29 86 4
29 87 1
29 88 5
29 89 1
29 90 5
29 91 5
29 92 5
29 93 2
29 94 2
29 95 4
29 96 5
29 97 5
29 98 5
29 99 1
29 100 4
30 31 4
30 32 2
30 33 5
30 34 2
30 35 3
30 36 5
30 37 1
30 38 3
30 39 5
30 40 1
30 41 3
30 42 2
30 43 3
30 44 4
30 45 3
30 46 1
30 47 2
30 48 4
30 49 5
30 50 4
30 51 2
30 52 3
30 53 1
30 54 5
30 55 1
30 56 1
30 57 1
30 58 3
30 59 5
30 60 2
30 61 5
30 62 2
30 63 1
30 64 2
30 65 2
30 66 3
30 67 5
30 68 2
30 69 2
30 70 2
30 71 1
30 72 1
30 73 1
30 74 3
30 75 2
30 76 4
30 77 5
30 78 5
30 79 1
30 80 3
30 81 4
30 82 3
30 83 2
30 84 3
30 85 5
30 86 2
30 87 4
30 88 4
30 89 4
30 90 3
30 91 4
30 92 4
30 93 1
30 94 3
30 95 3
30 96 2
30 97 1
30 98 3
30 99 4
30 100 3
31 32 3
31 33 3
31 34 3
31 35 4
31 36 3
31 37 1
31 38 4
31 39 5
31 40 1
31 41 4
31 42 1
31 43 1
31 44 5
31 45 1
31 46 3
31 47 4
31 48 3
31 49 1
31 50 4
31 51 3
31 52 3
31 53 4
31 54 5
31 55 5
31 56 3
31 57 4
31 58 5
31 59 4
31 60 1
31 61 1
31 62 3
31 63 3
31 64 5
31 65 5
31 66 4
31 67 2
31 68 4
31 69 5
31 70 4
31 71 1
31 72 1
31 73 5
31 74 1
31 75 4
31 76 2
31 77 1
31 78 2
31 79 3
31 80 1
31 81 2
31 82 1
31 83 2
31 84 3
31 85 4
31 86 3
31 87 4
31 88 3
31 89 5
31 90 2
31 91 4
31 92 1
31 93 3
31 94 3
31 95 2
31 96 4
31 97 3
31 98 3
31 99 3
31 100 5
32 33 4
32 34 4
32 35 3
32 36 1
32 37 4
32 38 5
32 39 3
32 40 2
32 41 2
32 42 4
32 43 2
32 44 3
32 45 2
32 46 5
32 47 4
32 48 4
32 49 5
32 50 1
32 51 1
32 52 5
32 53 1
32 54 4
32 55 2
32 56 1
32 57 5
32 58 2
32 59 2
32 60 1
32 61 2
32 62 2
32 63 1
32 64 1
32 65 2
32 66 5
32 67 5
32 68 2
32 69 5
32 70 2
32 71 5
32 72 5
32 73 3
32 74 1
32 75 1
32 76 5
32 77 1
32 78 5
32 79 4
32 80 4
32 81 4
32 82 5
32 83 2
32 84 3
32 85 2
32 86 1
32 87 2
32 88 3
32 89 4
32 90 4
32 91 2
32 92 3
32 93 4
32 94 5
32 95 1
32 96 1
32 97 5
32 98 2
32 99 2
32 100 3
33 34 2
33 35 2
33 36 5
33 37 5
33 38 1
33 39 3
33 40 1
33 41 2
33 42 5
33 43 2
33 44 4
33 45 2
33 46 3
33 47 1
33 48 2
33 49 2
33 50 2
33 51 1
33 52 3
33 53 1
33 54 3
33 55 4
33 56 5
33 57 5
33 58 1
33 59 4
33 60 3
33 61 3
33 62 4
33 63 3
33 64 5
33 65 5
33 66 5
33 67 2
33 68 4
33 69 3
33 70 5
33 71 1
33 72 2
33 73 4
33 74 5
33 75 1
33 76 1
33 77 1
33 78 4
33 79 3
33 80 3
33 81 5
33 82 4
33 83 3
33 84 4
33 85 5
33 86 3
33 87 5
33 88 5
33 89 5
33 90 1
33 91 4
33 92 5
33 93 2
33 94 1
33 95 2
33 96 4
33 97 3
33 98 1
33 99 4
33 100 3
34 35 4
34 36 4
34 37 3
34 38 2
34 39 4
34 40 3
34 41 3
34 42 3
34 43 1
34 44 5
34 45 4
34 46 3
34 47 1
34 48 3
34 49 4
34 50 4
34 51 4
34 52 5
34 53 1
34 54 2
34 55 2
34 56 1
34 57 4
34 58 3
34 59 1
34 60 4
34 61 2
34 62 1
34 63 1
34 64 2
34 65 1
34 66 4
34 67 5
34 68 4
34 69 4
34 70 1
34 71 1
34 72 3
34 73 4
34 74 5
34 75 2
34 76 2
34 77 5
34 78 5
34 79 3
34 80 3
34 81 2
34 82 2
34 83 5
34 84 2
34 85 2
34 86 3
34 87 1
34 88 5
34 89 1
34 90 2
34 91 2
34 92 3
34 93 1
34 94 2
34 95 3
34 96 2
34 97 2
34 98 1
34 99 2
34 100 3
35 36 2
35 37 5
35 38 2
35 39 1
35 40 3
35 41 3
35 42 4
35 43 2
35 44 3
35 45 5
35 46 4
35 47 2
35 48 2
35 49 1
35 50 1
35 51 4
35 52 1
35 53 3
35 54 5
35 55 5
35 56 4
35 57 4
35 58 2
35 59 2
35 60 2
35 61 5
35 62 3
35 63 5
35 64 1
35 65 4
35 66 4
35 67 1
35 68 2
35 69 4
35 70 5
35 71 3
35 72 2
35 73 2
35 74 1
35 75 4
35 76 5
35 77 1
35 78 5
35 79 2
35 80 5
35 81 2
35 82 2
35 83 5
35 84 1
35 85 3
35 86 1
35 87 3
35 88 2
35 89 3
35 90 2
35 91 2
35 92 2
35 93 4
35 94 4
35 95 3
35 96 1
35 97 4
35 98 1
35 99 4
35 100 2
36 37 4
36 38 2
36 39 5
36 40 2
36 41 4
36 42 5
36 43 4
36 44 2
36 45 3
36 46 2
36 47 3
36 48 2
36 49 5
36 50 1
36 51 3
36 52 5
36 53 5
36 54 1
36 55 2
36 56 4
36 57 1
36 58 2
36 59 1
36 60 4
36 61 3
36 62 1
36 63 2
36 64 2
36 65 3
36 66 5
36 67 3
36 68 4
36 69 3
36 70 5
36 71 3
36 72 4
36 73 3
36 74 5
36 75 3
36 76 4
36 77 3
36 78 4
36 79 5
36 80 3
36 81 1
36 82 4
36 83 5
36 84 2
36 85 1
36 86 1
36 87 2
36 88 2
36 89 4
36 90 3
36 91 1
36 92 5
36 93 4
36 94 2
36 95 2
36 96 1
36 97 2
36 98 2
36 99 2
36 100 1
37 38 4
37 39 5
37 40 5
37 41 1
37 42 3
37 43 1
37 44 4
37 45 2
37 46 4
37 47 2
37 48 4
37 49 3
37 50 3
37 51 5
37 52 4
37 53 1
37 54 2
37 55 4
37 56 2
37 57 3
37 58 1
37 59 5
37 60 4
37 61 4
37 62 5
37 63 3
37 64 1
37 65 4
37 66 1
37 67 2
37 68 4
37 69 1
37 70 2
37 71 3
37 72 5
37 73 2
37 74 3
37 75 1
37 76 3
37 77 3
37 78 5
37 79 4
37 80 5
37 81 2
37 82 1
37 83 4
37 84 1
37 85 4
37 86 1
37 87 4
37 88 5
37 89 4
37 90 3
37 91 3
37 92 5
37 93 3
37 94 1
37 95 5
37 96 1
37 97 5
37 98 5
37 99 4
37 100 4
38 39 5
38 40 4
38 41 5
38 42 3
38 43 4
38 44 2
38 45 1
38 46 5
38 47 1
38 48 5
38 49 2
38 50 1
38 51 5
38 52 5
38 53 1
38 54 2
38 55 1
38 56 5
38 57 3
38 58 4
38 59 2
38 60 2
38 61 3
38 62 1
38 63 1
38 64 5
38 65 2
38 66 5
38 67 3
38 68 3
38 69 5
38 70 3
38 71 2
38 72 1
38 73 2
38 74 3
38 75 4
38 76 4
38 77 3
38 78 1
38 79 4
38 80 4
38 81 2
38 82 4
38 83 4
38 84 5
38 85 3
38 86 3
38 87 4
38 88 2
38 89 4
38 90 4
38 91 1
38 92 1
38 93 1
38 94 3
38 95 3
38 96 3
38 97 1
38 98 2
38 99 3
38 100 1
39 40 5
39 41 1
39 42 5
39 43 4
39 44 1
39 45 3
39 46 3
39 47 4
39 48 2
39 49 1
39 50 4
39 51 4
39 52 3
39 53 1
39 54 1
39 55 2
39 56 1
39 57 4
39 58 3
39 59 4
39 60 1
39 61 5
39 62 1
39 63 3
39 64 3
39 65 5
39 66 3
39 67 5
39 68 3
39 69 2
39 70 3
39 71 1
39 72 1
39 73 5
39 74 2
39 75 4
39 76 4
39 77 3
39 78 3
39 79 3
39 80 5
39 81 1
39 82 1
39 83 3
39 84 4
39 85 3
39 86 5
39 87 4
39 88 2
39 89 1
39 90 4
39 91 4
39 92 5
39 93 2
39 94 4
39 95 5
39 96 5
39 97 4
39 98 2
39 99 3
39 100 3
40 41 2
40 42 1
40 43 2
40 44 5
40 45 2
40 46 1
40 47 4
40 48 4
40 49 3
40 50 4
40 51 5
40 52 4
40 53 3
40 54 1
40 55 1
40 56 4
40 57 2
40 58 4
40 59 4
40 60 2
40 61 2
40 62 2
40 63 2
40 64 1
40 65 3
40 66 1
40 67 1
40 68 4
40 69 4
40 70 4
40 71 3
40 72 1
40 73 5
40 74 4
40 75 1
40 76 2
40 77 5
40 78 4
40 79 3
40 80 3
40 81 4
40 82 2
40 83 5
40 84 1
40 85 5
40 86 4
40 87 3
40 88 2
40 89 2
40 90 3
40 91 3
40 92 5
40 93 4
40 94 1
40 95 1
40 96 3
40 97 4
40 98 2
40 99 3
40 100 1
41 42 4
41 43 5
41 44 4
41 45 2
41 46 1
41 47 1
41 48 2
41 49 4
41 50 2
41 51 5
41 52 1
41 53 3
41 54 2
41 55 5
41 56 2
41 57 1
41 58 2
41 59 1
41 60 4
41 61 3
41 62 1
41 63 5
41 64 1
41 65 3
41 66 1
41 67 4
41 68 1
41 69 1
41 70 3
41 71 4
41 72 4
41 73 3
41 74 2
41 75 4
41 76 2
41 77 4
41 78 1
41 79 1
41 80 3
41 81 3
41 82 5
41 83 2
41 84 1
41 85 2
41 86 3
41 87 3
41 88 4
41 89 4
41 90 5
41 91 2
41 92 2
41 93 2
41 94 1
41 95 3
41 96 3
41 97 5
41 98 3
41 99 2
41 100 2
42 43 5
42 44 2
42 45 3
42 46 5
42 47 5
42 48 2
42 49 5
42 50 1
42 51 3
42 52 4
42 53 4
42 54 1
42 55 3
42 56 2
42 57 1
42 58 2
42 59 4
42 60 3
42 61 3
42 62 2
42 63 2
42 64 3
42 65 5
42 66 4
42 67 2
42 68 4
42 69 4
42 70 4
42 71 3
42 72 5
42 73 3
42 74 5
42 75 3
42 76 3
42 77 5
42 78 1
42 79 1
42 80 4
42 81 5
42 82 5
42 83 1
42 84 3
42 85 4
42 86 3
42 87 2
42 88 5
42 89 5
42 90 4
42 91 2
42 92 4
42 93 5
42 94 3
42 95 2
42 96 2
42 97 5
42 98 1
42 99 1
42 100 4
43 44 3
43 45 5
43 46 5
43 47 2
43 48 2
43 49 2
43 50 3
43 51 2
43 52 1
43 53 2
43 54 3
43 55 1
43 56 4
43 57 3
43 58 2
43 59 3
43 60 5
43 61 3
43 62 2
43 63 3
43 64 4
43 65 2
43 66 5
43 67 4
43 68 4
43 69 2
43 70 2
43 71 1
43 72 1
43 73 5
43 74 1
43 75 4
43 76 2
43 77 4
43 78 3
43 79 5
43 80 3
43 81 3
43 82 3
43 83 3
43 84 5
43 85 4
43 86 1
43 87 4
43 88 2
43 89 5
43 90 1
43 91 1
43 92 1
43 93 5
43 94 4
43 95 3
43 96 3
43 97 3
43 98 1
43 99 4
43 100 5
44 45 2
44 46 1
44 47 5
44 48 5
44 49 3
44 50 5
44 51 1
44 52 5
44 53 2
44 54 4
44 55 4
44 56 2
44 57 1
44 58 5
44 59 2
44 60 4
44 61 5
44 62 5
44 63 5
44 64 3
44 65 3
44 66 3
44 67 4
44 68 3
44 69 2
44 70 1
44 71 3
44 72 4
44 73 2
44 74 3
44 75 2
44 76 1
44 77 4
44 78 3
44 79 5
44 80 3
44 81 1
44 82 5
44 83 2
44 84 4
44 85 3
44 86 1
44 87 4
44 88 2
44 89 2
44 90 1
44 91 4
44 92 3
44 93 4
44 94 3
44 95 4
44 96 3
44 97 5
44 98 1
44 99 1
44 100 5
45 46 1
45 47 4
45 48 3
45 49 1
45 50 1
45 51 4
45 52 5
45 53 3
45 54 2
45 55 5
45 56 2
45 57 1
45 58 1
45 59 1
45 60 3
45 61 4
45 62 4
45 63 4
45 64 1
45 65 1
45 66 3
45 67 3
45 68 1
45 69 5
45 70 5
45 71 2
45 72 4
45 73 2
45 74 4
45 75 5
45 76 2
45 77 2
45 78 5
45 79 2
45 80 1
45 81 3
45 82 1
45 83 3
45 84 5
45 85 3
45 86 1
45 87 4
45 88 2
45 89 2
45 90 4
45 91 3
45 92 1
45 93 5
45 94 5
45 95 5
45 96 5
45 97 2
45 98 2
45 99 4
45 100 1
46 47 2
46 48 5
46 49 4
46 50 5
46 51 4
46 52 2
46 53 2
46 54 5
46 55 5
46 56 3
46 57 5
46 58 5
46 59 5
46 60 2
46 61 4
46 62 2
46 63 5
46 64 2
46 65 2
46 66 1
46 67 1
46 68 3
46 69 5
46 70 1
46 71 1
46 72 5
46 73 3
46 74 5
46 75 2
46 76 4
46 77 2
46 78 2
46 79 1
46 80 1
46 81 4
46 82 3
46 83 1
46 84 3
46 85 1
46 86 4
46 87 5
46 88 3
46 89 5
46 90 4
46 91 2
46 92 3
46 93 5
46 94 1
46 95 1
46 96 1
46 97 4
46 98 4
46 99 4
46 100 4
47 48 4
47 49 4
47 50 1
47 51 2
47 52 5
47 53 1
47 54 1
47 55 1
47 56 5
47 57 2
47 58 1
47 59 5
47 60 4
47 61 3
47 62 3
47 63 3
47 64 3
47 65 1
47 66 4
47 67 4
47 68 5
47 69 3
47 70 1
47 71 2
47 72 3
47 73 4
47 74 2
47 75 2
47 76 5
47 77 4
47 78 4
47 79 3
47 80 5
47 81 3
47 82 4
47 83 1
47 84 4
47 85 5
47 86 1
47 87 1
47 88 4
47 89 4
47 90 5
47 91 1
47 92 2
47 93 5
47 94 4
47 95 1
47 96 2
47 97 5
47 98 3
47 99 2
47 100 4
48 49 1
48 50 1
48 51 3
48 52 3
48 53 4
48 54 2
48 55 4
48 56 1
48 57 2
48 58 3
48 59 2
48 60 2
48 61 2
48 62 4
48 63 5
48 64 4
48 65 4
48 66 4
48 67 5
48 68 2
48 69 3
48 70 1
48 71 2
48 72 3
48 73 5
48 74 5
48 75 4
48 76 1
48 77 5
48 78 3
48 79 1
48 80 3
48 81 2
48 82 4
48 83 4
48 84 2
48 85 4
48 86 5
48 87 1
48 88 3
48 89 3
48 90 3
48 91 2
48 92 3
48 93 3
48 94 1
48 95 2
48 96 3
48 97 2
48 98 2
48 99 3
48 100 4
49 50 5
49 51 5
49 52 4
49 53 1
49 54 2
49 55 3
49 56 5
49 57 5
49 58 4
49 59 5
49 60 3
49 61 3
49 62 2
49 63 2
49 64 3
49 65 5
49 66 3
49 67 4
49 68 2
49 69 3
49 70 1
49 71 2
49 72 2
49 73 3
49 74 3
49 75 2
49 76 5
49 77 4
49 78 4
49 79 2
49 80 2
49 81 3
49 82 5
49 83 1
49 84 4
49 85 3
49 86 3
49 87 2
49 88 2
49 89 2
49 90 4
49 91 3
49 92 1
49 93 5
49 94 2
49 95 5
49 96 3
49 97 2
49 98 3
49 99 2
49 100 2
50 51 4
50 52 2
50 53 4
50 54 2
50 55 2
50 56 1
50 57 2
50 58 4
50 59 1
50 60 4
50 61 3
50 62 3
50 63 2
50 64 3
50 65 4
50 66 5
50 67 4
50 68 4
50 69 1
50 70 2
50 71 4
50 72 5
50 73 2
50 74 1
50 75 4
50 76 3
50 77 1
50 78 5
50 79 4
50 80 2
50 81 4
50 82 5
50 83 1
50 84 5
50 85 5
50 86 4
50 87 2
50 88 5
50 89 4
50 90 5
50 91 3
50 92 1
50 93 1
50 94 2
50 95 2
50 96 2
50 97 2
50 98 1
50 99 4
50 100 3
51 52 3
51 53 3
51 54 5
51 55 1
51 56 1
51 57 3
51 58 3
51 59 2
51 60 2
51 61 1
51 62 5
51 63 5
51 64 5
51 65 5
51 66 3
51 67 1
51 68 3
51 69 2
51 70 1
51 71 2
51 72 4
51 73 5
51 74 4
51 75 3
51 76 2
51 77 1
51 78 4
51 79 1
51 80 4
51 81 4
51 82 3
51 83 5
51 84 5
51 85 2
51 86 4
51 87 3
51 88 2
51 89 1
51 90 5
51 91 4
51 92 2
51 93 2
51 94 1
51 95 5
51 96 1
51 97 2
51 98 3
51 99 3
51 100 2
52 53 5
52 54 4
52 55 4
52 56 2
52 57 1
52 58 3
52 59 1
52 60 3
52 61 4
52 62 5
52 63 1
52 64 4
52 65 2
52 66 2
52 67 1
52 68 3
52 69 4
52 70 5
52 71 5
52 72 5
52 73 4
52 74 3
52 75 2
52 76 5
52 77 2
52 78 4
52 79 5
52 80 3
52 81 3
52 82 1
52 83 5
52 84 1
52 85 3
52 86 2
52 87 4
52 88 4
52 89 1
52 90 5
52 91 1
52 92 3
52 93 2
52 94 4
52 95 5
52 96 4
52 97 2
52 98 5
52 99 3
52 100 3
53 54 4
53 55 2
53 56 2
53 57 1
53 58 1
53 59 4
53 60 2
53 61 4
53 62 4
53 63 5
53 64 2
53 65 4
53 66 4
53 67 1
53 68 2
53 69 2
53 70 1
53 71 1
53 72 3
53 73 2
53 74 2
53 75 3
53 76 2
53 77 1
53 78 2
53 79 5
53 80 2
53 81 1
53 82 4
53 83 1
53 84 4
53 85 2
53 86 5
53 87 3
53 88 2
53 89 2
53 90 1
53 91 1
53 92 2
53 93 2
53 94 3
53 95 3
53 96 1
53 97 1
53 98 1
53 99 4
53 100 4
54 55 3
54 56 5
54 57 5
54 58 2
54 59 1
54 60 5
54 61 1
54 62 3
54 63 3
54 64 1
54 65 2
54 66 2
54 67 5
54 68 2
54 69 4
54 70 2
54 71 1
54 72 3
54 73 2
54 74 1
54 75 5
54 76 2
54 77 4
54 78 1
54 79 4
54 80 2
54 81 5
54 82 1
54 83 2
54 84 5
54 85 3
54 86 5
54 87 2
54 88 1
54 89 4
54 90 4
54 91 3
54 92 3
54 93 3
54 94 5
54 95 5
54 96 3
54 97 1
54 98 5
54 99 5
54 100 2
55 56 5
55 57 5
55 58 5
55 59 2
55 60 2
55 61 2
55 62 4
55 63 3
55 64 2
55 65 2
55 66 4
55 67 5
55 68 1
55 69 1
55 70 1
55 71 3
55 72 3
55 73 2
55 74 3
55 75 1
55 76 5
55 77 1
55 78 5
55 79 1
55 80 4
55 81 3
55 82 5
55 83 5
55 84 1
55 85 5
55 86 4
55 87 3
55 88 3
55 89 4
55 90 3
55 91 1
55 92 3
55 93 3
55 94 3
55 95 5
55 96 5
55 97 5
55 98 2
55 99 4
55 100 5
56 57 3
56 58 5
56 59 3
56 60 1
56 61 1
56 62 4
56 63 4
56 64 3
56 65 1
56 66 1
56 67 4
56 68 1
56 69 4
56 70 1
56 71 2
56 72 1
56 73 1
56 74 4
56 75 1
56 76 1
56 77 5
56 78 4
56 79 5
56 80 1
56 81 2
56 82 3
56 83 4
56 84 3
56 85 2
56 86 2
56 87 1
56 88 4
56 89 3
56 90 2
56 91 4
56 92 3
56 93 1
56 94 5
56 95 3
56 96 5
56 97 3
56 98 4
56 99 4
56 100 4
57 58 4
57 59 5
57 60 1
57 61 4
57 62 5
57 63 1
57 64 5
57 65 3
57 66 2
57 67 1
57 68 4
57 69 3
57 70 5
57 71 4
57 72 3
57 73 1
57 74 4
57 75 3
57 76 1
57 77 4
57 78 3
57 79 2
57 80 4
57 81 3
57 82 1
57 83 3
57 84 5
57 85 5
57 86 2
57 87 1
57 88 5
57 89 3
57 90 1
57 91 2
57 92 5
57 93 1
57 94 5
57 95 4
57 96 5
57 97 3
57 98 1
57 99 1
57 100 5
58 59 3
58 60 3
58 61 4
58 62 5
58 63 4
58 64 2
58 65 1
58 66 3
58 67 5
58 68 3
58 69 5
58 70 3
58 71 4
58 72 5
58 73 3
58 74 2
58 75 5
58 76 5
58 77 4
58 78 4
58 79 5
58 80 2
58 81 4
58 82 5
58 83 2
58 84 2
58 85 2
58 86 3
58 87 2
58 88 1
58 89 2
58 90 4
58 91 5
58 92 1
58 93 2
58 94 4
58 95 1
58 96 3
58 97 5
58 98 4
58 99 5
58 100 4
59 60 2
59 61 5
59 62 4
59 63 5
59 64 5
59 65 1
59 66 3
59 67 2
59 68 1
59 69 1
59 70 1
59 71 4
59 72 3
59 73 5
59 74 5
59 75 4
59 76 1
59 77 5
59 78 1
59 79 3
59 80 4
59 81 4
59 82 3
59 83 2
59 84 2
59 85 5
59 86 5
59 87 2
59 88 3
59 89 5
59 90 1
59 91 2
59 92 5
59 93 2
59 94 1
59 95 3
59 96 3
59 97 4
59 98 2
59 99 3
59 100 2
60 61 4
60 62 5
60 63 5
60 64 2
60 65 1
60 66 3
60 67 2
60 68 3
60 69 3
60 70 5
60 71 5
60 72 3
60 73 4
60 74 3
60 75 1
60 76 5
60 77 5
60 78 3
60 79 3
60 80 3
60 81 4
60 82 5
60 83 2
60 84 2
60 85 3
60 86 3
60 87 1
60 88 4
60 89 5
60 90 3
60 91 5
60 92 3
60 93 4
60 94 1
60 95 4
60 96 1
60 97 4
60 98 5
60 99 5
60 100 3
61 62 5
61 63 3
61 64 4
61 65 1
61 66 4
61 67 5
61 68 3
61 69 4
61 70 3
61 71 1
61 72 1
61 73 5
61 74 5
61 75 4
61 76 2
61 77 2
61 78 4
61 79 1
61 80 5
61 81 5
61 82 2
61 83 2
61 84 1
61 85 5
61 86 3
61 87 2
61 88 3
61 89 5
61 90 5
61 91 5
61 92 1
61 93 4
61 94 1
61 95 4
61 96 2
61 97 2
61 98 1
61 99 4
61 100 1
62 63 3
62 64 3
62 65 4
62 66 5
62 67 2
62 68 1
62 69 3
62 70 2
62 71 2
62 72 1
62 73 2
62 74 1
62 75 2
62 76 1
62 77 5
62 78 1
62 79 5
62 80 1
62 81 4
62 82 5
62 83 3
62 84 1
62 85 1
62 86 5
62 87 5
62 88 5
62 89 4
62 90 1
62 91 5
62 92 3
62 93 1
62 94 4
62 95 4
62 96 2
62 97 4
62 98 3
62 99 1
62 100 2
63 64 5
63 65 1
63 66 1
63 67 3
63 68 2
63 69 5
63 70 1
63 71 5
63 72 1
63 73 5
63 74 1
63 75 1
63 76 1
63 77 3
63 78 1
63 79 4
63 80 2
63 81 5
63 82 1
63 83 3
63 84 4
63 85 2
63 86 5
63 87 1
63 88 4
63 89 4
63 90 3
63 91 3
63 92 1
63 93 5
63 94 1
63 95 3
63 96 4
63 97 5
63 98 2
63 99 2
63 100 3
64 65 1
64 66 1
64 67 2
64 68 3
64 69 1
64 70 2
64 71 5
64 72 1
64 73 4
64 74 3
64 75 3
64 76 2
64 77 4
64 78 2
64 79 2
64 80 2
64 81 3
64 82 2
64 83 3
64 84 2
64 85 5
64 86 5
64 87 5
64 88 3
64 89 4
64 90 1
64 91 2
64 92 5
64 93 2
64 94 2
64 95 1
64 96 1
64 97 1
64 98 5
64 99 4
64 100 3
65 66 5
65 67 3
65 68 2
65 69 3
65 70 2
65 71 3
65 72 3
65 73 2
65 74 5
65 75 1
65 76 4
65 77 3
65 78 3
65 79 2
65 80 3
65 81 4
65 82 1
65 83 3
65 84 1
65 85 4
65 86 1
65 87 2
65 88 1
65 89 5
65 90 4
65 91 5
65 92 4
65 93 1
65 94 4
65 95 5
65 96 1
65 97 2
65 98 3
65 99 3
65 100 2
66 67 5
66 68 1
66 69 5
66 70 3
66 71 2
66 72 4
66 73 4
66 74 5
66 75 3
66 76 2
66 77 3
66 78 1
66 79 4
66 80 2
66 81 1
66 82 1
66 83 3
66 84 3
66 85 5
66 86 1
66 87 2
66 88 5
66 89 5
66 90 1
66 91 5
66 92 3
66 93 2
66 94 1
66 95 1
66 96 3
66 97 1
66 98 5
66 99 3
66 100 2
67 68 2
67 69 1
67 70 2
67 71 5
67 72 3
67 73 4
67 74 1
67 75 4
67 76 5
67 77 4
67 78 4
67 79 1
67 80 4
67 81 1
67 82 3
67 83 4
67 84 3
67 85 3
67 86 1
67 87 1
67 88 3
67 89 2
67 90 1
67 91 2
67 92 3
67 93 1
67 94 1
67 95 4
67 96 5
67 97 3
67 98 3
67 99 2
67 100 1
68 69 3
68 70 2
68 71 1
68 72 5
68 73 2
68 74 5
68 75 3
68 76 4
68 77 1
68 78 4
68 79 5
68 80 1
68 81 2
68 82 2
68 83 4
68 84 1
68 85 3
68 86 3
68 87 5
68 88 4
68 89 3
68 90 3
68 91 5
68 92 1
68 93 2
68 94 2
68 95 2
68 96 5
68 97 4
68 98 1
68 99 5
68 100 3
69 70 4
69 71 5
69 72 1
69 73 3
69 74 4
69 75 2
69 76 1
69 77 3
69 78 5
69 79 3
69 80 5
69 81 3
69 82 4
69 83 5
69 84 5
69 85 1
69 86 2
69 87 3
69 88 1
69 89 4
69 90 5
69 91 4
69 92 2
69 93 3
69 94 3
69 95 1
69 96 2
69 97 3
69 98 2
69 99 3
69 100 4
70 71 4
70 72 2
70 73 2
70 74 5
70 75 2
70 76 2
70 77 4
70 78 2
70 79 1
70 80 2
70 81 5
70 82 2
70 83 2
70 84 2
70 85 4
70 86 5
70 87 4
70 88 5
70 89 2
70 90 1
70 91 1
70 92 5
70 93 5
70 94 2
70 95 4
70 96 5
70 97 5
70 98 2
70 99 2
70 100 4
71 72 3
71 73 4
71 74 4
71 75 2
71 76 1
71 77 4
71 78 4
71 79 3
71 80 3
71 81 1
71 82 4
71 83 1
71 84 3
71 85 5
71 86 1
71 87 5
71 88 1
71 89 5
71 90 5
71 91 2
71 92 1
71 93 1
71 94 1
71 95 3
71 96 5
71 97 1
71 98 2
71 99 3
71 100 5
72 73 4
72 74 3
72 75 2
72 76 1
72 77 5
72 78 3
72 79 1
72 80 4
72 81 2
72 82 2
72 83 1
72 84 4
72 85 3
72 86 5
72 87 4
72 88 4
72 89 4
72 90 1
72 91 3
72 92 3
72 93 4
72 94 1
72 95 3
72 96 2
72 97 2
72 98 5
72 99 1
72 100 2
73 74 3
73 75 1
73 76 3
73 77 5
73 78 5
73 79 2
73 80 4
73 81 2
73 82 1
73 83 4
73 84 1
73 85 3
73 86 5
73 87 3
73 88 1
73 89 4
73 90 4
73 91 5
73 92 1
73 93 5
73 94 1
73 95 2
73 96 3
73 97 1
73 98 4
73 99 4
73 100 5
74 75 3
74 76 3
74 77 3
74 78 2
74 79 5
74 80 3
74 81 1
74 82 3
74 83 4
74 84 2
74 85 3
74 86 3
74 87 3
74 88 5
74 89 4
74 90 5
74 91 5
74 92 1
74 93 4
74 94 1
74 95 5
74 96 5
74 97 5
74 98 3
74 99 3
74 100 5
75 76 5
75 77 1
75 78 5
75 79 1
75 80 3
75 81 3
75 82 1
75 83 5
75 84 2
75 85 5
75 86 3
75 87 2
75 88 4
75 89 2
75 90 5
75 91 4
75 92 1
75 93 3
75 94 5
75 95 3
75 96 3
75 97 2
75 98 1
75 99 3
75 100 4
76 77 3
76 78 2
76 79 2
76 80 5
76 81 3
76 82 1
76 83 4
76 84 1
76 85 4
76 86 4
76 87 1
76 88 4
76 89 2
76 90 5
76 91 3
76 92 2
76 93 5
76 94 5
76 95 4
76 96 4
76 97 1
76 98 5
76 99 4
76 100 4
77 78 3
77 79 2
77 80 4
77 81 5
77 82 3
77 83 1
77 84 1
77 85 2
77 86 4
77 87 3
77 88 3
77 89 2
77 90 3
77 91 5
77 92 3
77 93 1
77 94 1
77 95 4
77 96 5
77 97 5
77 98 1
77 99 5
77 100 1
78 79 2
78 80 1
78 81 3
78 82 3
78 83 5
78 84 5
78 85 1
78 86 2
78 87 2
78 88 5
78 89 4
78 90 4
78 91 5
78 92 3
78 93 2
78 94 4
78 95 2
78 96 4
78 97 5
78 98 3
78 99 2
78 100 2
79 80 3
79 81 1
79 82 1
79 83 2
79 84 5
79 85 5
79 86 5
79 87 1
79 88 5
79 89 5
79 90 2
79 91 4
79 92 4
79 93 1
79 94 5
79 95 5
79 96 1
79 97 2
79 98 2
79 99 4
79 100 5
80 81 1
80 82 4
80 83 1
80 84 3
80 85 3
80 86 2
80 87 1
80 88 1
80 89 4
80 90 2
80 91 2
80 92 3
80 93 2
80 94 5
80 95 5
80 96 5
80 97 3
80 98 4
80 99 2
80 100 3
81 82 5
81 83 5
81 84 1
81 85 2
81 86 3
81 87 3
81 88 2
81 89 2
81 90 3
81 91 4
81 92 1
81 93 2
81 94 1
81 95 5
81 96 1
81 97 2
81 98 5
81 99 2
81 100 1
82 83 2
82 84 2
82 85 4
82 86 2
82 87 4
82 88 2
82 89 1
82 90 4
82 91 1
82 92 2
82 93 2
82 94 4
82 95 3
82 96 3
82 97 1
82 98 3
82 99 5
82 100 5
83 84 5
83 85 5
83 86 1
83 87 5
83 88 3
83 89 3
83 90 4
83 91 3
83 92 5
83 93 2
83 94 2
83 95 4
83 96 3
83 97 1
83 98 3
83 99 5
83 100 2
84 85 2
84 86 2
84 87 5
84 88 1
84 89 2
84 90 2
84 91 1
84 92 5
84 93 5
84 94 2
84 95 2
84 96 3
84 97 3
84 98 3
84 99 2
84 100 4
85 86 2
85 87 1
85 88 2
85 89 3
85 90 3
85 91 5
85 92 5
85 93 1
85 94 5
85 95 5
85 96 2
85 97 5
85 98 2
85 99 4
85 100 4
86 87 2
86 88 5
86 89 5
86 90 1
86 91 4
86 92 4
86 93 1
86 94 5
86 95 3
86 96 5
86 97 3
86 98 2
86 99 1
86 100 2
87 88 1
87 89 1
87 90 5
87 91 5
87 92 2
87 93 4
87 94 4
87 95 5
87 96 3
87 97 4
87 98 1
87 99 5
87 100 3
88 89 5
88 90 4
88 91 1
88 92 2
88 93 1
88 94 3
88 95 4
88 96 4
88 97 5
88 98 3
88 99 3
88 100 2
89 90 2
89 91 2
89 92 2
89 93 5
89 94 4
89 95 4
89 96 2
89 97 3
89 98 1
89 99 3
89 100 4
90 91 4
90 92 2
90 93 5
90 94 1
90 95 2
90 96 5
90 97 1
90 98 2
90 99 5
90 100 1
91 92 3
91 93 5
91 94 5
91 95 4
91 96 3
91 97 3
91 98 4
91 99 3
91 100 5
92 93 4
92 94 4
92 95 1
92 96 1
92 97 4
92 98 3
92 99 5
92 100 1
93 94 1
93 95 3
93 96 5
93 97 1
93 98 3
93 99 4
93 100 2
94 95 2
94 96 5
94 97 2
94 98 1
94 99 4
94 100 1
95 96 4
95 97 3
95 98 5
95 99 1
95 100 1
96 97 2
96 98 3
96 99 2
96 100 1
97 98 5
97 99 4
97 100 4
98 99 2
98 100 2
99 100 2
